NAME : berlin52-C-5-0-c.9651.tour
COMMENT : Length = 9651
COMMENT : Found by LKH-3 [Keld Helsgaun] Tue Jul 30 13:14:05 2024
TYPE : TOUR
DIMENSION : 52
TOUR_SECTION
1
45
10
9
8
41
19
31
21
42
7
2
46
25
12
28
26
27
13
14
52
11
51
33
43
4
6
15
5
24
48
38
37
40
39
32
18
3
17
30
23
20
50
29
47
16
44
34
35
36
49
22
-1
EOF
